c 1 A1
c 2 C3
c 3 C5
c 4 A6
c 5 C7
c 6 C8
c 7 A4
c 8 C10
c 9 C11
c 10 A9
c 11 C12
c 12 A2
c 13 C13
c 14 C14
c 15 C15
c 16 C16
c 17 C17
c 18 C18
c 19 C19
c 20 C20
c 21 C21
p cnf 21 30
1 0
1 -12 0
1 -2 0
1 -7 0
1 -3 0
1 -4 0
12 2 7 3 4 -1 0
4 -5 0
4 -6 0
5 6 -4 0
7 -10 0
7 -8 0
7 -9 0
10 -7 0
8 -7 0
10 -11 0
11 -10 0
12 -13 0
12 -14 0
12 -15 0
12 -16 0
12 -17 0
12 -18 0
12 -19 0
12 -20 0
12 -21 0
8 18 0
18 -2 0
8 0
13 -16 -3 0